language Essence 1.3

letting blksize_delta be
        function(1 --> 8, 2 --> 8, 3 --> 8, 4 --> 8, 5 --> 8, 6 --> 8, 7 --> 9, 8 --> 8, 9 --> 8, 10 --> 10, 11 --> 8,
                 12 --> 8, 13 --> 8)
letting maxcars be
        function(1 --> 10, 2 --> 10, 3 --> 10, 4 --> 10, 5 --> 10, 6 --> 10, 7 --> 10, 8 --> 10, 9 --> 10, 10 --> 10,
                 11 --> 10, 12 --> 10, 13 --> 10)
letting n_cars be 226
letting n_classes be 53
letting n_options be 13
letting quantity be
        function(1 --> 3, 2 --> 3, 3 --> 3, 4 --> 3, 5 --> 3, 6 --> 3, 7 --> 3, 8 --> 22, 9 --> 3, 10 --> 3, 11 --> 24,
                 12 --> 3, 13 --> 3, 14 --> 15, 15 --> 3, 16 --> 12, 17 --> 3, 18 --> 3, 19 --> 3, 20 --> 3, 21 --> 3,
                 22 --> 7, 23 --> 3, 24 --> 3, 25 --> 3, 26 --> 4, 27 --> 3, 28 --> 3, 29 --> 3, 30 --> 3, 31 --> 3,
                 32 --> 3, 33 --> 4, 34 --> 3, 35 --> 3, 36 --> 3, 37 --> 3, 38 --> 3, 39 --> 3, 40 --> 3, 41 --> 3,
                 42 --> 3, 43 --> 3, 44 --> 3, 45 --> 3, 46 --> 3, 47 --> 3, 48 --> 3, 49 --> 3, 50 --> 3, 51 --> 3,
                 52 --> 3, 53 --> 3)
letting usage be
        relation((1, 8), (2, 9), (3, 10), (4, 6), (5, 8), (6, 4), (7, 13), (8, 1), (8, 2), (9, 11), (10, 12), (11, 2),
                 (11, 9), (12, 13), (13, 13), (14, 11), (15, 6), (16, 13), (17, 13), (18, 8), (19, 12), (20, 10),
                 (20, 11), (20, 12), (21, 4), (21, 6), (21, 12), (22, 2), (22, 8), (22, 9), (22, 12), (23, 11), (24, 1),
                 (25, 12), (26, 13), (27, 13), (28, 13), (29, 13), (30, 13), (31, 13), (32, 10), (33, 2), (34, 2),
                 (34, 9), (35, 2), (35, 5), (35, 7), (35, 11), (36, 6), (37, 10), (38, 13), (39, 2), (39, 3), (39, 6),
                 (39, 8), (39, 11), (39, 13), (40, 6), (41, 13), (42, 3), (42, 13), (43, 9), (44, 11), (45, 13),
                 (46, 3), (46, 5), (47, 10), (48, 7), (48, 11), (49, 5), (50, 2), (50, 13), (51, 6), (52, 12), (53, 7),
                 (53, 10), (53, 13))
$ Visualisation for usage
$  1  8
$  2  9
$  3 10
$  4  6
$  5  8
$  6  4
$  7 13
$  8  1
$  8  2
$  9 11
$ 10 12
$ 11  2
$ 11  9
$ 12 13
$ 13 13
$ 14 11
$ 15  6
$ 16 13
$ 17 13
$ 18  8
$ 19 12
$ 20 10
$ 20 11
$ 20 12
$ 21  4
$ 21  6
$ 21 12
$ 22  2
$ 22  8
$ 22  9
$ 22 12
$ 23 11
$ 24  1
$ 25 12
$ 26 13
$ 27 13
$ 28 13
$ 29 13
$ 30 13
$ 31 13
$ 32 10
$ 33  2
$ 34  2
$ 34  9
$ 35  2
$ 35  5
$ 35  7
$ 35 11
$ 36  6
$ 37 10
$ 38 13
$ 39  2
$ 39  3
$ 39  6
$ 39  8
$ 39 11
$ 39 13
$ 40  6
$ 41 13
$ 42  3
$ 42 13
$ 43  9
$ 44 11
$ 45 13
$ 46  3
$ 46  5
$ 47 10
$ 48  7
$ 48 11
$ 49  5
$ 50  2
$ 50 13
$ 51  6
$ 52 12
$ 53  7
$ 53 10
$ 53 13

